;test regex ^([A-Z]+(?:\s[A-Z]+)*),\s*([A-Z]{2,3}),\s*([0-9]{3,4})$
(declare-const X String)
(assert (str.in_re X (re.++ (re.++ (re.++ (re.++ (str.to_re "") (re.++ (re.+ (re.range "A" "Z")) (re.* (re.++ (re.union (str.to_re " ") (re.union (str.to_re "\u{0b}") (re.union (str.to_re "\u{0a}") (re.union (str.to_re "\u{0d}") (re.union (str.to_re "\u{09}") (str.to_re "\u{0c}")))))) (re.+ (re.range "A" "Z")))))) (re.++ (str.to_re ",") (re.++ (re.* (re.union (str.to_re " ") (re.union (str.to_re "\u{0b}") (re.union (str.to_re "\u{0a}") (re.union (str.to_re "\u{0d}") (re.union (str.to_re "\u{09}") (str.to_re "\u{0c}"))))))) ((_ re.loop 2 3) (re.range "A" "Z"))))) (re.++ (str.to_re ",") (re.++ (re.* (re.union (str.to_re " ") (re.union (str.to_re "\u{0b}") (re.union (str.to_re "\u{0a}") (re.union (str.to_re "\u{0d}") (re.union (str.to_re "\u{09}") (str.to_re "\u{0c}"))))))) ((_ re.loop 3 4) (re.range "0" "9"))))) (str.to_re ""))))
; sanitize danger characters:  < > ' " &
(assert (not (str.in_re X (re.++ re.all (re.union (str.to_re "\u{3c}") (str.to_re "\u{3e}") (str.to_re "\u{27}") (str.to_re "\u{22}") (str.to_re "\u{26}")) re.all))))
(assert (< 10 (str.len X)))
(check-sat)
(get-model)